N = 510;
M = 1254;
Edge_Start = [1, 1, 2, 2, 3, 3, 4, 5, 5, 5, 6, 7, 7, 8, 8, 9, 9, 10, 11, 11, 11, 12, 12, 13, 13, 13, 14, 14, 15, 15, 15, 16, 16, 17, 17, 17, 18, 18, 19, 19, 19, 20, 20, 21, 21, 21, 22, 22, 23, 23, 23, 24, 24, 25, 25, 25, 26, 26, 27, 27, 27, 28, 28, 29, 29, 29, 30, 30, 31, 31, 32, 32, 33, 33, 33, 34, 34, 35, 35, 36, 36, 36, 37, 37, 38, 38, 39, 40, 40, 40, 41, 41, 41, 42, 42, 42, 43, 43, 43, 44, 44, 44, 45, 45, 45, 46, 46, 46, 47, 47, 47, 48, 48, 48, 49, 49, 49, 50, 50, 50, 51, 51, 51, 52, 52, 53, 54, 54, 55, 55, 55, 56, 56, 56, 57, 57, 58, 58, 59, 59, 59, 60, 60, 60, 61, 61, 61, 62, 62, 62, 63, 63, 64, 64, 65, 65, 65, 66, 66, 66, 67, 67, 67, 68, 68, 68, 69, 69, 70, 70, 70, 71, 71, 72, 72, 73, 73, 74, 74, 75, 75, 76, 77, 77, 77, 78, 78, 78, 79, 79, 79, 80, 80, 80, 81, 81, 81, 82, 82, 83, 83, 84, 84, 85, 85, 85, 86, 86, 86, 87, 87, 87, 88, 88, 88, 89, 89, 89, 90, 90, 90, 91, 91, 92, 93, 93, 93, 94, 94, 95, 95, 96, 96, 97, 97, 97, 98, 98, 98, 99, 99, 99, 100, 100, 100, 101, 101, 101, 102, 102, 102, 103, 103, 103, 104, 104, 105, 105, 105, 106, 106, 106, 107, 107, 107, 108, 108, 109, 109, 110, 110, 111, 111, 112, 112, 112, 113, 113, 113, 114, 114, 115, 115, 116, 117, 117, 118, 118, 118, 119, 119, 119, 120, 120, 120, 121, 121, 121, 122, 122, 122, 123, 123, 123, 124, 124, 125, 125, 125, 126, 126, 127, 127, 128, 128, 129, 129, 130, 130, 131, 131, 131, 132, 132, 132, 133, 133, 133, 134, 134, 134, 135, 135, 135, 136, 136, 137, 137, 137, 138, 138, 138, 139, 139, 139, 140, 140, 140, 141, 141, 142, 142, 143, 143, 144, 144, 145, 145, 145, 146, 146, 147, 147, 147, 148, 148, 149, 149, 150, 150, 151, 151, 152, 152, 152, 153, 153, 153, 154, 154, 155, 155, 155, 156, 156, 156, 157, 157, 158, 158, 159, 159, 160, 160, 161, 161, 161, 162, 162, 163, 163, 164, 164, 165, 165, 166, 166, 166, 167, 168, 169, 169, 170, 170, 170, 171, 171, 171, 172, 172, 173, 173, 174, 174, 175, 175, 175, 176, 176, 176, 177, 177, 178, 179, 179, 180, 180, 180, 181, 181, 181, 182, 182, 182, 183, 183, 184, 184, 185, 185, 186, 186, 187, 187, 187, 188, 188, 188, 189, 189, 189, 190, 190, 191, 192, 192, 193, 193, 193, 194, 194, 194, 195, 195, 195, 196, 196, 196, 197, 197, 197, 198, 198, 198, 199, 200, 200, 201, 201, 202, 202, 203, 203, 203, 204, 204, 204, 205, 205, 205, 206, 206, 206, 207, 207, 207, 208, 208, 208, 209, 209, 209, 210, 210, 210, 211, 212, 212, 213, 213, 213, 214, 214, 214, 215, 215, 216, 216, 216, 217, 217, 217, 218, 218, 219, 219, 220, 220, 221, 221, 221, 222, 222, 223, 223, 224, 224, 225, 225, 225, 226, 226, 226, 227, 227, 227, 228, 228, 228, 229, 229, 229, 230, 230, 230, 231, 231, 232, 232, 232, 233, 233, 233, 234, 234, 235, 235, 235, 236, 236, 237, 237, 238, 238, 238, 239, 239, 239, 240, 240, 240, 241, 241, 241, 242, 242, 242, 243, 243, 243, 244, 244, 244, 245, 245, 245, 246, 246, 246, 247, 247, 247, 248, 248, 248, 249, 249, 249, 250, 250, 251, 251, 252, 253, 253, 254, 254, 255, 255, 256, 256, 257, 257, 257, 258, 258, 258, 259, 259, 259, 260, 260, 260, 261, 261, 261, 262, 262, 263, 263, 264, 264, 264, 265, 265, 265, 266, 266, 267, 268, 268, 269, 269, 269, 270, 270, 270, 271, 271, 271, 272, 272, 273, 273, 274, 274, 274, 275, 275, 276, 276, 277, 277, 277, 278, 278, 279, 279, 280, 280, 281, 281, 281, 282, 282, 282, 283, 283, 283, 284, 284, 284, 285, 285, 285, 286, 286, 286, 287, 287, 288, 288, 289, 289, 290, 290, 291, 291, 292, 292, 292, 293, 293, 294, 295, 295, 295, 296, 296, 296, 297, 297, 297, 298, 298, 298, 299, 299, 300, 300, 301, 301, 302, 302, 303, 303, 303, 304, 304, 304, 305, 305, 305, 306, 306, 306, 307, 307, 308, 308, 309, 309, 309, 310, 310, 310, 311, 311, 311, 312, 312, 313, 313, 313, 314, 314, 314, 315, 315, 315, 316, 316, 316, 317, 317, 317, 318, 318, 318, 319, 319, 320, 320, 321, 321, 321, 322, 322, 322, 323, 323, 324, 324, 324, 325, 325, 325, 326, 326, 326, 327, 327, 327, 328, 328, 328, 329, 329, 330, 331, 331, 332, 332, 332, 333, 333, 333, 334, 334, 334, 335, 335, 335, 336, 336, 337, 337, 338, 338, 339, 339, 339, 340, 340, 340, 341, 341, 341, 342, 342, 342, 343, 343, 343, 344, 344, 344, 345, 345, 345, 346, 346, 346, 347, 347, 347, 348, 348, 348, 349, 349, 350, 350, 351, 351, 352, 352, 353, 353, 353, 354, 354, 355, 356, 357, 357, 358, 358, 358, 359, 359, 359, 360, 360, 360, 361, 361, 361, 362, 362, 362, 363, 363, 363, 364, 364, 364, 365, 365, 366, 366, 367, 367, 367, 368, 369, 369, 370, 370, 370, 371, 371, 371, 372, 372, 372, 373, 373, 374, 374, 374, 375, 375, 376, 376, 377, 377, 378, 378, 379, 380, 380, 381, 381, 382, 382, 383, 383, 384, 384, 385, 385, 385, 386, 386, 387, 387, 387, 388, 388, 388, 389, 389, 390, 390, 391, 391, 391, 392, 392, 393, 394, 394, 395, 395, 395, 396, 396, 397, 397, 398, 398, 398, 399, 399, 399, 400, 400, 400, 401, 401, 401, 402, 402, 402, 403, 403, 404, 405, 405, 406, 406, 406, 407, 407, 407, 408, 408, 409, 409, 410, 410, 410, 411, 411, 411, 412, 412, 412, 413, 413, 414, 414, 415, 415, 416, 416, 417, 417, 417, 418, 418, 419, 419, 419, 420, 420, 420, 421, 421, 421, 422, 422, 423, 423, 424, 424, 424, 425, 425, 425, 426, 426, 426, 427, 427, 427, 428, 428, 428, 429, 429, 429, 430, 430, 430, 431, 431, 431, 432, 432, 433, 433, 434, 434, 435, 436, 437, 437, 437, 438, 438, 438, 439, 439, 439, 440, 440, 441, 441, 441, 442, 442, 442, 443, 443, 443, 444, 444, 444, 445, 445, 445, 446, 446, 446, 447, 447, 448, 448, 449, 449, 449, 450, 450, 450, 451, 451, 452, 452, 453, 453, 453, 454, 454, 455, 455, 455, 456, 456, 457, 458, 458, 459, 459, 460, 461, 461, 461, 462, 462, 463, 463, 464, 464, 465, 465, 465, 466, 466, 467, 467, 468, 468, 468, 469, 469, 469, 470, 470, 471, 471, 472, 472, 472, 473, 473, 473, 474, 474, 474, 475, 475, 475, 476, 476, 476, 477, 477, 477, 478, 478, 478, 479, 479, 480, 480, 481, 481, 482, 482, 482, 483, 483, 484, 484, 484, 485, 485, 486, 486, 487, 487, 488, 488, 489, 490, 490, 491, 492, 492, 493, 493, 494, 494, 494, 495, 495, 496, 496, 497, 497, 498, 498, 498, 499, 499, 500, 500, 500, 501, 501, 502, 502, 502, 503, 503, 504, 504, 504, 505, 505, 506, 506, 506, 507, 507, 508, 508, 508, 509, 509, 510, 510];
Edge_End = [2, 32, 1, 3, 2, 34, 5, 4, 6, 36, 5, 8, 38, 7, 9, 8, 40, 11, 10, 12, 42, 11, 13, 12, 14, 44, 13, 15, 14, 16, 46, 15, 17, 16, 18, 48, 17, 19, 18, 20, 50, 19, 21, 20, 22, 52, 21, 23, 22, 24, 54, 23, 25, 24, 26, 56, 25, 27, 26, 28, 58, 27, 29, 28, 30, 60, 29, 31, 30, 62, 1, 33, 32, 34, 65, 3, 33, 36, 67, 5, 35, 37, 36, 38, 7, 37, 40, 9, 39, 41, 40, 42, 73, 11, 41, 43, 42, 44, 75, 13, 43, 45, 44, 46, 77, 15, 45, 47, 46, 48, 79, 17, 47, 49, 48, 50, 81, 19, 49, 51, 50, 52, 83, 21, 51, 85, 23, 55, 54, 56, 87, 25, 55, 57, 56, 89, 27, 59, 58, 60, 91, 29, 59, 61, 60, 62, 93, 31, 61, 63, 62, 95, 65, 96, 33, 64, 66, 65, 67, 98, 35, 66, 68, 67, 69, 100, 68, 70, 69, 71, 102, 70, 72, 71, 73, 41, 72, 75, 106, 43, 74, 77, 45, 76, 78, 77, 79, 110, 47, 78, 80, 79, 81, 112, 49, 80, 82, 81, 114, 51, 84, 83, 85, 53, 84, 86, 85, 87, 118, 55, 86, 88, 87, 89, 120, 57, 88, 90, 89, 91, 122, 59, 90, 93, 61, 92, 94, 93, 95, 63, 94, 64, 97, 96, 98, 129, 66, 97, 99, 98, 100, 131, 68, 99, 101, 100, 102, 133, 70, 101, 103, 102, 104, 135, 103, 105, 104, 106, 137, 74, 105, 107, 106, 108, 139, 107, 109, 108, 110, 78, 109, 112, 143, 80, 111, 113, 112, 114, 145, 82, 113, 116, 147, 115, 118, 149, 86, 117, 119, 118, 120, 151, 88, 119, 121, 120, 122, 153, 90, 121, 123, 122, 124, 155, 123, 125, 124, 126, 157, 125, 127, 126, 159, 129, 160, 97, 128, 131, 162, 99, 130, 132, 131, 133, 164, 101, 132, 134, 133, 135, 166, 103, 134, 136, 135, 137, 105, 136, 138, 137, 139, 170, 107, 138, 140, 139, 141, 172, 140, 142, 141, 143, 111, 142, 145, 176, 113, 144, 146, 145, 147, 115, 146, 148, 147, 180, 117, 150, 149, 182, 119, 152, 151, 153, 184, 121, 152, 154, 153, 155, 123, 154, 156, 155, 157, 188, 125, 156, 159, 190, 127, 158, 128, 161, 160, 162, 193, 130, 161, 164, 195, 132, 163, 166, 197, 134, 165, 167, 166, 169, 168, 170, 138, 169, 171, 170, 172, 203, 140, 171, 174, 205, 173, 175, 174, 176, 207, 144, 175, 177, 176, 209, 179, 178, 180, 148, 179, 181, 180, 182, 213, 150, 181, 183, 182, 184, 152, 183, 186, 217, 185, 187, 186, 188, 219, 156, 187, 189, 188, 190, 221, 158, 189, 223, 193, 224, 161, 192, 194, 193, 195, 226, 163, 194, 196, 195, 197, 228, 165, 196, 198, 197, 199, 230, 198, 201, 232, 200, 202, 201, 203, 171, 202, 204, 203, 205, 236, 173, 204, 206, 205, 207, 238, 175, 206, 208, 207, 209, 240, 177, 208, 210, 209, 211, 242, 210, 213, 244, 181, 212, 214, 213, 215, 246, 214, 216, 215, 217, 248, 185, 216, 218, 217, 250, 187, 220, 219, 221, 189, 220, 222, 221, 223, 191, 222, 192, 225, 224, 226, 257, 194, 225, 227, 226, 228, 259, 196, 227, 229, 228, 230, 261, 198, 229, 231, 230, 232, 200, 231, 233, 232, 234, 265, 233, 235, 234, 236, 267, 204, 235, 238, 269, 206, 237, 239, 238, 240, 271, 208, 239, 241, 240, 242, 273, 210, 241, 243, 242, 244, 275, 212, 243, 245, 244, 246, 277, 214, 245, 247, 246, 248, 279, 216, 247, 249, 248, 250, 281, 218, 249, 252, 283, 251, 254, 285, 253, 255, 254, 287, 257, 288, 225, 256, 258, 257, 259, 290, 227, 258, 260, 259, 261, 292, 229, 260, 262, 261, 263, 262, 264, 263, 265, 296, 233, 264, 266, 265, 298, 235, 269, 300, 237, 268, 270, 269, 271, 302, 239, 270, 272, 271, 304, 241, 274, 273, 275, 306, 243, 274, 277, 308, 245, 276, 278, 277, 310, 247, 280, 279, 281, 249, 280, 282, 281, 283, 314, 251, 282, 284, 283, 285, 316, 253, 284, 286, 285, 287, 318, 255, 286, 256, 289, 288, 321, 258, 291, 290, 292, 260, 291, 293, 292, 325, 295, 294, 296, 327, 264, 295, 297, 296, 298, 329, 266, 297, 299, 298, 331, 268, 301, 300, 333, 270, 303, 302, 304, 335, 272, 303, 305, 304, 306, 337, 274, 305, 307, 306, 339, 276, 309, 308, 310, 341, 278, 309, 311, 310, 312, 343, 311, 313, 312, 314, 345, 282, 313, 315, 314, 316, 347, 284, 315, 317, 316, 318, 349, 286, 317, 319, 318, 351, 321, 352, 289, 320, 322, 321, 323, 354, 322, 324, 323, 325, 356, 293, 324, 326, 325, 327, 358, 295, 326, 328, 327, 329, 360, 297, 328, 362, 299, 332, 331, 333, 364, 301, 332, 334, 333, 335, 366, 303, 334, 336, 335, 337, 305, 336, 339, 370, 307, 338, 340, 339, 341, 372, 309, 340, 342, 341, 343, 374, 311, 342, 344, 343, 345, 376, 313, 344, 346, 345, 347, 378, 315, 346, 348, 347, 349, 380, 317, 348, 351, 382, 319, 350, 320, 353, 352, 354, 385, 322, 353, 387, 324, 358, 389, 326, 357, 359, 358, 360, 391, 328, 359, 361, 360, 362, 393, 330, 361, 363, 362, 364, 395, 332, 363, 365, 364, 397, 334, 367, 366, 368, 399, 367, 370, 401, 338, 369, 371, 370, 372, 403, 340, 371, 373, 372, 374, 342, 373, 375, 374, 407, 344, 377, 376, 378, 346, 377, 411, 348, 381, 380, 413, 350, 383, 382, 415, 385, 416, 353, 384, 386, 385, 387, 355, 386, 388, 387, 389, 420, 357, 388, 391, 422, 359, 390, 392, 391, 424, 361, 395, 426, 363, 394, 396, 395, 428, 365, 398, 397, 399, 430, 367, 398, 400, 399, 401, 432, 369, 400, 402, 401, 403, 434, 371, 402, 405, 404, 406, 405, 407, 438, 375, 406, 408, 407, 409, 408, 410, 409, 411, 442, 379, 410, 412, 411, 413, 444, 381, 412, 415, 446, 383, 414, 384, 417, 416, 418, 449, 417, 419, 418, 420, 451, 388, 419, 421, 420, 422, 453, 390, 421, 424, 455, 392, 423, 425, 424, 426, 457, 394, 425, 427, 426, 428, 459, 396, 427, 429, 428, 430, 461, 398, 429, 431, 430, 432, 463, 400, 431, 434, 465, 402, 433, 467, 437, 436, 438, 469, 406, 437, 439, 438, 440, 471, 439, 441, 440, 442, 473, 410, 441, 443, 442, 444, 475, 412, 443, 445, 444, 446, 477, 414, 445, 447, 446, 479, 449, 480, 417, 448, 450, 449, 451, 482, 419, 450, 453, 484, 421, 452, 454, 453, 455, 423, 454, 456, 455, 488, 425, 459, 490, 427, 458, 461, 429, 460, 462, 461, 494, 431, 464, 463, 465, 433, 464, 466, 465, 498, 435, 468, 467, 469, 500, 437, 468, 470, 469, 502, 439, 472, 471, 473, 504, 441, 472, 474, 473, 475, 506, 443, 474, 476, 475, 477, 508, 445, 476, 478, 477, 479, 510, 447, 478, 448, 481, 480, 482, 450, 481, 483, 482, 484, 452, 483, 485, 484, 486, 485, 487, 486, 488, 456, 487, 490, 458, 489, 492, 491, 493, 492, 494, 462, 493, 495, 494, 496, 495, 497, 496, 498, 466, 497, 499, 498, 500, 468, 499, 501, 500, 502, 470, 501, 503, 502, 504, 472, 503, 505, 504, 506, 474, 505, 507, 506, 508, 476, 507, 509, 508, 510, 478, 509];
L = [3, 10, 3, 16, 16, 14, 13, 13, 1, 12, 1, 6, 4, 6, 16, 16, 19, 14, 14, 12, 5, 12, 6, 6, 8, 12, 8, 17, 17, 1, 13, 1, 15, 15, 17, 14, 17, 5, 5, 19, 9, 19, 8, 8, 3, 5, 3, 17, 17, 1, 17, 1, 10, 10, 4, 12, 4, 2, 2, 13, 3, 13, 4, 4, 17, 11, 17, 8, 8, 8, 10, 7, 7, 5, 8, 14, 5, 18, 10, 12, 18, 16, 16, 7, 4, 7, 2, 19, 2, 16, 16, 7, 5, 5, 7, 9, 9, 2, 1, 12, 2, 9, 9, 3, 14, 13, 3, 5, 5, 3, 1, 14, 3, 16, 16, 4, 18, 9, 4, 13, 13, 12, 13, 5, 12, 16, 17, 1, 1, 1, 8, 12, 1, 2, 2, 3, 3, 11, 11, 9, 9, 11, 9, 12, 12, 1, 14, 8, 1, 1, 1, 10, 11, 1, 8, 11, 13, 13, 7, 10, 10, 7, 15, 15, 12, 17, 12, 13, 13, 16, 17, 16, 1, 1, 11, 5, 11, 8, 5, 1, 8, 10, 14, 10, 9, 9, 3, 3, 1, 3, 6, 6, 8, 10, 18, 8, 18, 18, 3, 13, 14, 14, 14, 16, 14, 18, 18, 11, 5, 8, 11, 18, 18, 1, 14, 3, 1, 13, 13, 13, 17, 9, 13, 14, 14, 14, 15, 15, 13, 10, 13, 1, 8, 8, 1, 10, 10, 1, 10, 10, 9, 4, 17, 9, 7, 7, 12, 18, 17, 12, 9, 9, 10, 18, 10, 8, 8, 13, 14, 5, 13, 16, 16, 4, 7, 4, 6, 6, 14, 3, 14, 6, 12, 10, 6, 2, 2, 1, 6, 3, 1, 2, 14, 2, 5, 2, 5, 5, 15, 15, 12, 18, 14, 12, 16, 16, 6, 14, 17, 6, 8, 8, 14, 5, 14, 16, 16, 17, 12, 17, 2, 2, 4, 6, 13, 10, 6, 9, 19, 4, 9, 3, 3, 15, 11, 18, 15, 6, 6, 12, 17, 18, 12, 8, 8, 7, 14, 7, 10, 10, 6, 2, 7, 6, 10, 10, 13, 6, 13, 10, 10, 1, 12, 1, 10, 16, 6, 10, 1, 1, 7, 14, 7, 10, 10, 10, 2, 13, 13, 15, 18, 14, 14, 7, 11, 14, 7, 18, 18, 11, 5, 11, 18, 18, 9, 10, 12, 9, 4, 9, 4, 4, 13, 12, 12, 15, 19, 19, 15, 3, 1, 11, 3, 5, 11, 17, 5, 5, 5, 15, 15, 6, 2, 6, 15, 15, 18, 10, 6, 18, 9, 6, 9, 9, 9, 19, 10, 16, 19, 11, 11, 7, 5, 5, 15, 10, 15, 17, 17, 15, 11, 15, 15, 2, 2, 10, 11, 10, 8, 15, 8, 11, 11, 9, 16, 10, 9, 8, 8, 2, 2, 9, 2, 12, 7, 12, 19, 7, 16, 16, 9, 16, 1, 9, 8, 8, 11, 2, 11, 11, 3, 3, 10, 8, 10, 17, 4, 17, 10, 10, 9, 10, 9, 19, 19, 8, 6, 6, 8, 1, 1, 2, 8, 10, 2, 18, 18, 12, 10, 7, 12, 4, 4, 7, 12, 7, 14, 13, 11, 14, 8, 8, 4, 14, 4, 5, 5, 9, 9, 15, 9, 16, 16, 7, 16, 19, 19, 4, 2, 4, 17, 17, 1, 12, 1, 12, 9, 9, 11, 16, 16, 11, 5, 5, 1, 19, 2, 1, 13, 13, 13, 8, 8, 13, 12, 12, 2, 4, 2, 7, 7, 14, 17, 14, 14, 14, 6, 13, 6, 6, 9, 15, 8, 9, 15, 15, 5, 2, 10, 5, 4, 4, 9, 4, 12, 9, 12, 12, 4, 4, 13, 4, 19, 19, 8, 12, 14, 8, 11, 11, 9, 11, 9, 9, 8, 8, 16, 18, 7, 16, 7, 15, 7, 10, 8, 10, 3, 3, 10, 2, 4, 16, 2, 11, 11, 3, 15, 19, 3, 1, 1, 18, 7, 8, 18, 2, 2, 10, 10, 11, 11, 5, 2, 17, 5, 13, 13, 16, 13, 13, 10, 15, 13, 5, 5, 3, 13, 2, 3, 13, 13, 13, 4, 4, 4, 2, 18, 4, 2, 17, 7, 12, 17, 6, 6, 4, 11, 6, 6, 1, 18, 1, 17, 17, 8, 14, 15, 8, 11, 11, 8, 7, 8, 8, 2, 2, 11, 13, 10, 11, 4, 6, 6, 17, 15, 4, 4, 4, 7, 4, 3, 3, 19, 1, 1, 14, 13, 2, 14, 18, 18, 12, 13, 16, 12, 16, 16, 9, 10, 1, 1, 16, 13, 12, 12, 6, 16, 13, 6, 7, 7, 5, 2, 18, 5, 10, 10, 19, 7, 11, 11, 10, 14, 4, 10, 18, 18, 2, 14, 2, 2, 2, 12, 17, 14, 12, 1, 1, 6, 4, 7, 6, 7, 7, 16, 13, 13, 16, 18, 18, 10, 8, 11, 17, 8, 3, 3, 10, 19, 10, 13, 13, 6, 4, 19, 6, 13, 13, 7, 2, 13, 7, 6, 6, 14, 9, 13, 14, 7, 9, 16, 16, 17, 19, 16, 17, 7, 7, 17, 3, 16, 17, 16, 16, 14, 2, 14, 9, 6, 19, 9, 9, 9, 9, 18, 14, 9, 15, 15, 6, 1, 14, 6, 1, 1, 1, 18, 17, 1, 17, 17, 6, 8, 4, 6, 7, 7, 17, 2, 13, 17, 9, 8, 10, 9, 11, 16, 16, 12, 2, 19, 12, 4, 4, 7, 12, 2, 7, 15, 15, 11, 9, 9, 11, 4, 4, 2, 14, 7, 2, 19, 19, 11, 9, 19, 11, 8, 8, 19, 3, 18, 18, 13, 14, 13, 9, 18, 6, 9, 6, 6, 10, 7, 18, 10, 9, 9, 18, 1, 18, 7, 7, 13, 18, 7, 7, 17, 8, 17, 4, 2, 1, 1, 14, 8, 18, 18, 1, 17, 4, 2, 17, 11, 11, 17, 4, 17, 1, 1, 18, 9, 12, 18, 13, 14, 9, 13, 18, 18, 1, 14, 18, 12, 9, 18, 10, 10, 18, 19, 16, 16, 18, 18, 14, 18, 2, 2, 7, 1, 18, 7, 5, 5, 17, 5, 7, 17, 2, 2, 1, 1, 4, 10, 13, 4, 9, 9, 14, 14, 14, 14, 9, 5, 4, 9, 1, 1, 8, 17, 14, 8, 12, 9, 1, 12, 4, 12, 12, 18, 6, 18, 1, 1, 3, 7, 9, 3, 3, 3, 6, 12, 14, 6, 8, 18, 1, 8, 4, 4, 6, 7, 12, 6, 3, 3, 9, 14, 18, 9, 17, 17, 3, 3, 18, 3, 4, 4, 10, 6, 1, 10, 10, 18, 5, 10, 12, 10, 10, 11, 12, 10, 11, 2, 2, 17, 1, 17, 12, 12, 14, 9, 5, 14, 18, 18, 9, 15, 17, 9, 1, 1, 7, 2, 9, 7, 13, 13, 19, 1, 9, 6, 1, 13, 13, 4, 15, 7, 4, 13, 14, 12, 13, 19, 19, 2, 18, 2, 3, 3, 2, 7, 14, 7, 14, 14, 9, 3, 9, 10, 10, 4, 6, 19, 19, 14, 18, 14, 2, 2, 5, 12, 1, 1, 4, 12, 12, 4, 1, 1, 7, 1, 14, 14, 17, 17, 9, 17, 14, 14, 3, 2, 15, 3, 19, 19, 10, 11, 2, 10, 7, 7, 19, 8, 19, 19, 9, 3, 3, 2, 15, 2, 16, 16, 13, 14, 13, 17, 17, 1, 1, 14, 14, 5, 2, 5, 11, 7, 11, 9, 9, 4, 4, 15, 4, 15, 16, 16, 1, 1, 7, 7, 9, 5, 9, 14, 14, 9, 12, 9, 10, 10, 7, 7, 7, 13, 13, 16, 17, 16, 11, 11, 14, 2, 14, 3, 3, 10, 11, 10, 3, 3, 7, 8, 7];
T = [1, 19, 1, 13, 13, 19, 17, 17, 1, 14, 1, 1, 1, 1, 23, 23, 17, 17, 17, 9, 10, 9, 7, 7, 13, 17, 13, 12, 12, 1, 12, 1, 17, 17, 22, 5, 22, 1, 1, 15, 13, 15, 9, 9, 1, 5, 1, 19, 19, 7, 19, 7, 17, 17, 8, 14, 8, 8, 8, 15, 3, 15, 1, 1, 16, 5, 16, 15, 15, 9, 19, 3, 3, 4, 10, 19, 4, 29, 12, 14, 29, 17, 17, 7, 1, 7, 9, 17, 9, 22, 22, 5, 1, 10, 5, 11, 11, 1, 1, 17, 1, 4, 4, 8, 9, 12, 8, 7, 7, 1, 12, 5, 1, 9, 9, 8, 19, 13, 8, 9, 9, 7, 15, 5, 7, 14, 19, 1, 1, 1, 7, 14, 1, 7, 7, 3, 3, 15, 15, 14, 1, 5, 14, 6, 6, 1, 17, 9, 1, 1, 1, 1, 9, 1, 10, 9, 8, 8, 6, 7, 12, 6, 14, 14, 12, 29, 12, 17, 17, 18, 11, 18, 2, 2, 11, 1, 11, 1, 4, 1, 1, 13, 9, 13, 5, 5, 2, 1, 12, 2, 8, 8, 3, 7, 19, 3, 10, 10, 1, 15, 14, 14, 16, 14, 16, 18, 18, 12, 7, 7, 12, 19, 19, 1, 12, 3, 1, 7, 7, 15, 14, 1, 15, 20, 17, 20, 13, 13, 16, 1, 16, 1, 2, 2, 6, 14, 7, 6, 9, 9, 3, 9, 29, 3, 2, 2, 9, 17, 11, 9, 13, 13, 12, 19, 12, 11, 11, 10, 4, 4, 10, 10, 10, 4, 6, 4, 8, 8, 11, 1, 11, 9, 4, 7, 9, 5, 5, 1, 10, 1, 1, 1, 18, 1, 2, 1, 7, 2, 19, 19, 11, 17, 12, 11, 12, 12, 10, 9, 14, 10, 13, 13, 16, 3, 16, 15, 15, 18, 9, 18, 1, 1, 2, 11, 7, 14, 11, 5, 21, 9, 5, 16, 16, 1, 7, 17, 1, 20, 20, 13, 20, 19, 13, 6, 6, 8, 4, 8, 10, 10, 11, 1, 6, 11, 18, 18, 8, 6, 8, 12, 12, 1, 4, 1, 4, 12, 10, 4, 10, 10, 8, 18, 8, 7, 7, 11, 1, 13, 13, 15, 17, 21, 21, 16, 22, 9, 16, 22, 22, 14, 3, 14, 27, 27, 1, 15, 9, 1, 17, 10, 2, 17, 7, 19, 19, 16, 18, 21, 16, 5, 1, 7, 5, 1, 10, 20, 1, 10, 10, 10, 10, 3, 1, 3, 5, 5, 25, 14, 6, 25, 8, 5, 8, 10, 10, 30, 12, 12, 30, 9, 9, 8, 1, 1, 13, 11, 13, 16, 16, 23, 10, 15, 23, 4, 4, 17, 22, 17, 3, 11, 3, 12, 12, 6, 17, 15, 6, 5, 5, 2, 1, 10, 2, 11, 9, 7, 18, 9, 17, 17, 13, 12, 1, 13, 6, 6, 14, 6, 10, 14, 1, 1, 4, 8, 4, 18, 1, 18, 13, 13, 16, 14, 16, 18, 18, 11, 4, 5, 11, 4, 4, 2, 10, 12, 2, 21, 21, 7, 11, 8, 7, 1, 1, 7, 26, 7, 10, 7, 10, 10, 8, 8, 11, 13, 11, 9, 9, 1, 15, 11, 1, 22, 22, 1, 17, 19, 19, 10, 1, 10, 9, 9, 1, 11, 1, 7, 9, 9, 16, 17, 12, 16, 3, 3, 4, 21, 6, 4, 10, 10, 15, 12, 8, 15, 17, 17, 1, 1, 1, 1, 1, 20, 13, 20, 15, 15, 2, 15, 4, 2, 8, 9, 10, 8, 11, 11, 8, 1, 11, 8, 9, 9, 12, 1, 26, 12, 11, 11, 11, 1, 7, 11, 18, 18, 10, 7, 13, 10, 24, 24, 10, 8, 15, 10, 10, 10, 18, 21, 1, 18, 9, 16, 9, 13, 14, 13, 11, 11, 5, 3, 7, 17, 3, 1, 1, 3, 20, 21, 3, 1, 1, 9, 14, 12, 9, 1, 1, 1, 1, 11, 11, 1, 8, 13, 1, 16, 16, 18, 15, 10, 7, 9, 10, 1, 1, 5, 22, 1, 5, 21, 21, 9, 1, 9, 9, 1, 22, 1, 1, 13, 5, 7, 13, 14, 14, 1, 8, 8, 8, 1, 21, 1, 20, 20, 7, 11, 16, 7, 17, 17, 5, 6, 14, 5, 1, 1, 16, 21, 5, 16, 7, 6, 6, 16, 20, 1, 1, 1, 14, 1, 5, 5, 17, 5, 5, 8, 15, 8, 8, 16, 16, 8, 20, 18, 8, 21, 21, 11, 7, 3, 3, 16, 22, 17, 17, 10, 17, 9, 10, 4, 4, 4, 1, 22, 4, 2, 2, 20, 5, 8, 8, 12, 5, 1, 12, 15, 15, 4, 18, 4, 1, 1, 10, 21, 11, 10, 6, 6, 6, 1, 6, 6, 11, 11, 25, 8, 21, 25, 14, 14, 13, 1, 7, 16, 1, 1, 1, 16, 24, 16, 15, 15, 9, 2, 17, 9, 10, 10, 10, 15, 15, 10, 9, 9, 18, 9, 20, 18, 7, 11, 16, 16, 13, 16, 16, 13, 4, 4, 16, 1, 17, 16, 21, 21, 15, 1, 15, 8, 8, 20, 8, 12, 12, 16, 18, 5, 16, 15, 15, 9, 1, 18, 9, 5, 5, 2, 11, 21, 2, 23, 23, 1, 10, 1, 1, 7, 7, 20, 11, 8, 20, 12, 8, 13, 12, 7, 11, 11, 19, 3, 24, 19, 1, 2, 1, 14, 15, 1, 10, 10, 17, 1, 9, 17, 4, 4, 1, 22, 7, 1, 15, 15, 1, 1, 16, 1, 8, 8, 23, 1, 17, 17, 10, 13, 10, 10, 17, 8, 10, 8, 8, 10, 6, 18, 10, 10, 10, 22, 1, 22, 1, 1, 3, 11, 8, 8, 24, 10, 24, 1, 11, 1, 1, 17, 8, 15, 15, 1, 20, 7, 3, 20, 7, 7, 19, 1, 19, 1, 1, 20, 7, 14, 20, 11, 6, 1, 11, 13, 13, 1, 22, 17, 10, 1, 17, 19, 19, 12, 23, 14, 14, 21, 14, 13, 21, 5, 5, 4, 1, 17, 4, 6, 6, 21, 11, 6, 21, 1, 1, 1, 1, 1, 10, 3, 1, 1, 1, 13, 13, 13, 13, 9, 5, 1, 9, 1, 1, 2, 12, 17, 2, 14, 21, 1, 14, 7, 8, 8, 25, 4, 25, 4, 4, 8, 6, 7, 8, 12, 12, 5, 13, 6, 5, 13, 17, 1, 13, 14, 14, 17, 15, 10, 17, 4, 4, 21, 4, 12, 21, 19, 19, 1, 6, 14, 1, 1, 1, 6, 3, 1, 6, 6, 13, 11, 6, 1, 2, 2, 4, 15, 10, 4, 1, 1, 21, 1, 21, 13, 13, 10, 21, 5, 10, 21, 21, 4, 7, 12, 4, 1, 1, 1, 3, 21, 1, 17, 17, 18, 1, 6, 4, 1, 9, 9, 9, 21, 6, 9, 10, 15, 13, 10, 19, 19, 5, 17, 5, 1, 1, 1, 15, 18, 6, 4, 18, 7, 6, 7, 13, 13, 1, 3, 15, 15, 8, 13, 8, 1, 1, 4, 1, 6, 6, 8, 14, 15, 8, 5, 5, 7, 1, 9, 9, 17, 5, 21, 17, 21, 21, 1, 4, 7, 1, 28, 28, 19, 10, 3, 19, 4, 4, 14, 2, 18, 14, 6, 1, 1, 8, 21, 8, 15, 15, 11, 15, 11, 11, 11, 8, 8, 16, 16, 12, 1, 12, 13, 6, 13, 12, 12, 12, 12, 22, 1, 22, 16, 16, 1, 1, 13, 13, 9, 4, 9, 17, 17, 10, 14, 10, 14, 14, 1, 7, 1, 14, 14, 25, 5, 25, 7, 7, 20, 4, 20, 3, 3, 11, 10, 11, 1, 1, 9, 2, 9];
Lower_Bound = [0, 1, 14, 118, 101, 102, 112, 113, 136, 147, 128, 137, 140, 154, 147, 148, 150, 170, 174, 186, 181, 184, 202, 208, 226, 237, 242, 256, 258, 273, 279, 20, 22, 26, 58, 87, 105, 115, 144, 135, 115, 119, 122, 123, 127, 135, 144, 143, 152, 162, 170, 176, 228, 220, 221, 222, 229, 244, 255, 262, 268, 269, 270, 41, 32, 41, 47, 60, 73, 82, 100, 102, 112, 120, 121, 149, 136, 141, 143, 151, 155, 165, 184, 198, 214, 232, 228, 234, 232, 239, 254, 306, 285, 287, 273, 43, 44, 47, 57, 59, 62, 70, 83, 95, 106, 116, 126, 130, 139, 143, 167, 160, 163, 164, 209, 210, 242, 240, 256, 245, 257, 253, 266, 282, 297, 316, 317, 70, 58, 70, 66, 79, 78, 99, 102, 108, 110, 123, 131, 149, 159, 169, 170, 177, 173, 184, 191, 198, 243, 255, 274, 282, 266, 283, 270, 298, 297, 313, 318, 76, 95, 91, 91, 89, 119, 118, 128, 134, 124, 122, 126, 151, 174, 182, 187, 189, 198, 223, 223, 209, 225, 248, 254, 270, 276, 278, 290, 297, 301, 304, 323, 122, 113, 105, 93, 98, 112, 113, 117, 140, 158, 157, 141, 158, 169, 174, 175, 198, 203, 204, 212, 243, 236, 244, 254, 263, 264, 286, 307, 312, 303, 312, 312, 129, 127, 111, 108, 105, 114, 121, 140, 139, 140, 160, 165, 162, 191, 183, 194, 205, 211, 223, 223, 235, 256, 256, 280, 278, 289, 287, 338, 348, 341, 354, 349, 136, 133, 132, 129, 130, 126, 128, 128, 140, 140, 156, 180, 211, 200, 200, 195, 216, 212, 221, 226, 273, 259, 273, 288, 296, 297, 315, 322, 322, 327, 328, 344, 143, 151, 146, 145, 144, 149, 160, 155, 147, 164, 173, 192, 217, 220, 223, 235, 226, 231, 233, 235, 278, 285, 275, 290, 293, 294, 306, 310, 316, 327, 349, 364, 166, 167, 166, 182, 175, 166, 176, 172, 179, 183, 200, 203, 219, 232, 236, 252, 245, 230, 263, 255, 267, 285, 299, 307, 312, 314, 313, 311, 318, 335, 388, 376, 173, 185, 190, 214, 178, 192, 191, 202, 189, 193, 193, 208, 209, 217, 238, 254, 264, 282, 271, 281, 286, 295, 301, 301, 323, 332, 322, 340, 332, 331, 397, 392, 207, 188, 194, 213, 214, 206, 213, 202, 215, 215, 226, 209, 229, 240, 254, 267, 268, 272, 278, 286, 306, 307, 304, 303, 304, 317, 330, 340, 340, 343, 376, 390, 214, 222, 233, 230, 221, 224, 219, 230, 217, 230, 236, 240, 240, 259, 260, 262, 268, 295, 289, 340, 321, 319, 314, 315, 336, 346, 335, 357, 352, 353, 354, 371, 227, 226, 236, 235, 248, 238, 254, 246, 248, 245, 262, 244, 272, 267, 278, 264, 280, 287, 288, 343, 333, 333, 338, 316, 325, 342, 361, 362, 375, 356, 361, 374, 233, 235, 242, 257, 263, 273, 276, 262, 248, 282, 268, 325, 313, 301, 279, 295, 297, 301, 292, 309, 320, 333, 334, 348, 330, 337, 358, 360, 371, 373, 362];
Upper_Bound = [1, 8, 16, 124, 111, 104, 114, 134, 141, 160, 144, 141, 141, 158, 155, 164, 154, 176, 184, 187, 184, 188, 211, 209, 239, 249, 243, 270, 262, 274, 280, 25, 31, 27, 67, 90, 111, 116, 148, 137, 116, 131, 123, 128, 136, 138, 163, 156, 157, 163, 171, 196, 230, 222, 230, 230, 231, 246, 275, 271, 278, 270, 278, 43, 34, 47, 48, 61, 74, 92, 118, 118, 126, 123, 131, 150, 142, 143, 144, 159, 163, 168, 189, 203, 215, 234, 230, 242, 233, 240, 274, 309, 291, 291, 283, 44, 47, 48, 58, 68, 67, 73, 87, 97, 107, 117, 137, 140, 154, 144, 171, 164, 169, 165, 210, 211, 243, 256, 257, 249, 262, 258, 267, 284, 302, 319, 325, 72, 70, 72, 81, 89, 88, 112, 104, 109, 119, 127, 135, 156, 167, 172, 175, 178, 183, 200, 197, 200, 256, 260, 282, 286, 268, 286, 279, 301, 302, 314, 323, 79, 98, 98, 95, 91, 121, 120, 136, 138, 127, 125, 132, 161, 176, 189, 189, 196, 207, 226, 226, 213, 228, 252, 264, 271, 278, 284, 291, 303, 310, 309, 326, 124, 120, 112, 95, 103, 114, 114, 122, 146, 160, 159, 142, 161, 180, 177, 177, 206, 208, 205, 213, 246, 240, 250, 255, 266, 266, 294, 311, 313, 323, 319, 314, 133, 128, 123, 113, 116, 119, 127, 146, 143, 142, 162, 166, 175, 197, 184, 199, 206, 215, 226, 225, 236, 259, 257, 281, 279, 295, 288, 345, 353, 342, 372, 356, 144, 136, 141, 137, 135, 130, 136, 132, 143, 144, 157, 198, 213, 206, 202, 203, 219, 218, 226, 231, 282, 269, 281, 290, 297, 303, 320, 334, 324, 332, 332, 351, 144, 165, 147, 148, 151, 150, 167, 160, 152, 165, 174, 199, 225, 236, 224, 245, 233, 233, 235, 242, 284, 290, 277, 293, 295, 302, 309, 323, 318, 332, 353, 365, 185, 168, 175, 183, 185, 171, 179, 174, 185, 188, 210, 216, 228, 235, 238, 255, 248, 232, 268, 259, 269, 286, 306, 325, 321, 321, 314, 315, 320, 348, 389, 377, 174, 186, 191, 216, 179, 194, 194, 208, 200, 198, 194, 210, 214, 220, 241, 258, 271, 291, 272, 286, 290, 301, 302, 303, 324, 333, 331, 346, 335, 341, 398, 394, 208, 191, 197, 220, 217, 209, 218, 203, 225, 219, 235, 210, 232, 246, 255, 273, 270, 287, 288, 288, 309, 310, 305, 306, 305, 330, 334, 348, 346, 347, 384, 402, 225, 228, 234, 231, 223, 226, 220, 242, 219, 237, 237, 253, 241, 266, 261, 267, 290, 296, 296, 342, 332, 320, 319, 329, 353, 359, 345, 376, 362, 377, 355, 374, 243, 247, 237, 243, 249, 249, 255, 260, 253, 246, 264, 247, 279, 268, 285, 267, 283, 293, 290, 345, 334, 335, 340, 318, 334, 343, 374, 366, 386, 358, 373, 376, 235, 240, 246, 269, 266, 274, 277, 273, 249, 288, 270, 328, 314, 302, 282, 299, 302, 302, 295, 312, 330, 335, 336, 353, 336, 339, 371, 366, 383, 377, 363];
Start = 1;
End = 510;
Time = 363;
